Model status
Optimal

# Primal solution values
Feasible
Objective 0
# Columns 8
frame_x_5 0
frame_y_6 0
frame_width_7 300
frame_height_8 150
line_x1_9 30
line_y1_10 15
line_x2_11 270
line_y2_12 270
# Rows 8
constraint_000001 0
constraint_000002 0
constraint_000003 300
constraint_000004 150
constraint_000005 0
constraint_000006 0
constraint_000007 0
constraint_000008 0

# Dual solution values
Feasible
# Columns 8
frame_x_5 0
frame_y_6 0
frame_width_7 0
frame_height_8 0
line_x1_9 0
line_y1_10 0
line_x2_11 0
line_y2_12 0
# Rows 8
constraint_000001 0
constraint_000002 0
constraint_000003 0
constraint_000004 0
constraint_000005 0
constraint_000006 0
constraint_000007 0
constraint_000008 0

# Basis
HiGHS v1
Valid
# Columns 8
0 0 1 1 1 1 1 1 
# Rows 8
1 1 0 0 0 0 0 0 
